nK = 1971;
nT = 6;
nI = 14;
L = 29;
TT = 444;
np = 1;
nc = 3;
b = [30, 35, 40, 29, 48, 39, 28, 67, 58, 47, 34, 37, 21, 44];
d = [112, 93, 127, 129, 80, 96, 94, 113, 143, 81, 148, 98, 142, 90];
m = [1.8, 2.3, 1, 1.3, 2.3, 1.8, 2.5, 1.9, 2.4, 2, 2, 1.6, 2.5, 1.2];
pt = [0.35, 0.22, 0.32, 0.35, 0.32, 0.25];
st = [18.9, 10.34, 15.36, 18.55, 14.08, 12];
arc = {<1, 0, 1, 1, 0, 0, 0, [1, 1, 1, 1, 1, 1]>, <2, 1, 2, 1, 0, 0, 0, [1, 1, 1, 1, 1, 1]>, <3, 2, 3, 1, 0, 0, 0, [1, 1, 1, 1, 1, 1]>, <4, 3, 4, 1, 0, 0, 0, [1, 1, 1, 1, 1, 1]>, <5, 4, 5, 1, 0, 0, 0, [1, 1, 1, 1, 1, 1]>, <6, 5, 6, 1, 0, 0, 0, [1, 1, 1, 1, 1, 1]>, <7, 6, 7, 1, 0, 0, 0, [1, 1, 1, 1, 1, 1]>, <8, 7, 8, 1, 0, 0, 0, [1, 1, 1, 1, 1, 1]>, <9, 8, 9, 1, 0, 0, 0, [1, 1, 1, 1, 1, 1]>, <10, 9, 10, 1, 0, 0, 0, [1, 1, 1, 1, 1, 1]>, <11, 10, 11, 1, 0, 0, 0, [1, 1, 1, 1, 1, 1]>, <12, 11, 12, 1, 0, 0, 0, [1, 1, 1, 1, 1, 1]>, <13, 12, 13, 1, 0, 0, 0, [1, 1, 1, 1, 1, 1]>, <14, 13, 14, 1, 0, 0, 0, [1, 1, 1, 1, 1, 1]>, <15, 14, 15, 1, 0, 0, 0, [1, 1, 1, 1, 1, 1]>, <16, 15, 16, 1, 0, 0, 0, [1, 1, 1, 1, 1, 1]>, <17, 16, 17, 1, 0, 0, 0, [1, 1, 1, 1, 1, 1]>, <18, 17, 18, 1, 0, 0, 0, [1, 1, 1, 1, 1, 1]>, <19, 18, 19, 1, 0, 0, 0, [1, 1, 1, 1, 1, 1]>, <20, 19, 20, 1, 0, 0, 0, [1, 1, 1, 1, 1, 1]>, <21, 20, 21, 1, 0, 0, 0, [1, 1, 1, 1, 1, 1]>, <22, 21, 22, 1, 0, 0, 0, [1, 1, 1, 1, 1, 1]>, <23, 22, 23, 1, 0, 0, 0, [1, 1, 1, 1, 1, 1]>, <24, 23, 24, 1, 0, 0, 0, [1, 1, 1, 1, 1, 1]>, <25, 24, 25, 1, 0, 0, 0, [1, 1, 1, 1, 1, 1]>, <26, 25, 26, 1, 0, 0, 0, [1, 1, 1, 1, 1, 1]>, <27, 26, 27, 1, 0, 0, 0, [1, 1, 1, 1, 1, 1]>, <28, 27, 28, 1, 0, 0, 0, [1, 1, 1, 1, 1, 1]>, <29, 28, 29, 1, 0, 0, 0, [1, 1, 1, 1, 1, 1]>, <30, 0, 14, 14, 1, 0, 1, [1, 1, 0, 0, 0, 0]>, <31, 1, 15, 14, 1, 0, 1, [1, 1, 0, 0, 0, 0]>, <32, 2, 16, 14, 1, 0, 1, [1, 1, 0, 0, 0, 0]>, <33, 3, 17, 14, 1, 0, 1, [1, 1, 0, 0, 0, 0]>, <34, 4, 18, 14, 1, 0, 1, [1, 1, 0, 0, 0, 0]>, <35, 5, 19, 14, 1, 0, 1, [1, 1, 0, 0, 0, 0]>, <36, 6, 20, 14, 1, 0, 1, [1, 1, 0, 0, 0, 0]>, <37, 7, 21, 14, 1, 0, 1, [1, 1, 0, 0, 0, 0]>, <38, 8, 22, 14, 1, 0, 1, [1, 1, 0, 0, 0, 0]>, <39, 9, 23, 14, 1, 0, 1, [1, 1, 0, 0, 0, 0]>, <40, 10, 24, 14, 1, 0, 1, [1, 1, 0, 0, 0, 0]>, <41, 11, 25, 14, 1, 0, 1, [1, 1, 0, 0, 0, 0]>, <42, 12, 26, 14, 1, 0, 1, [1, 1, 0, 0, 0, 0]>, <43, 13, 27, 14, 1, 0, 1, [1, 1, 0, 0, 0, 0]>, <44, 14, 28, 14, 1, 0, 1, [1, 1, 0, 0, 0, 0]>, <45, 15, 29, 14, 1, 0, 1, [1, 1, 0, 0, 0, 0]>, <46, 0, 16, 16, 2, 1, 0, [1, 1, 0, 0, 0, 0]>, <47, 1, 17, 16, 2, 1, 0, [1, 1, 0, 0, 0, 0]>, <48, 2, 18, 16, 2, 1, 0, [1, 1, 0, 0, 0, 0]>, <49, 3, 19, 16, 2, 1, 0, [1, 1, 0, 0, 0, 0]>, <50, 4, 20, 16, 2, 1, 0, [1, 1, 0, 0, 0, 0]>, <51, 5, 21, 16, 2, 1, 0, [1, 1, 0, 0, 0, 0]>, <52, 6, 22, 16, 2, 1, 0, [1, 1, 0, 0, 0, 0]>, <53, 7, 23, 16, 2, 1, 0, [1, 1, 0, 0, 0, 0]>, <54, 8, 24, 16, 2, 1, 0, [1, 1, 0, 0, 0, 0]>, <55, 9, 25, 16, 2, 1, 0, [1, 1, 0, 0, 0, 0]>, <56, 10, 26, 16, 2, 1, 0, [1, 1, 0, 0, 0, 0]>, <57, 11, 27, 16, 2, 1, 0, [1, 1, 0, 0, 0, 0]>, <58, 12, 28, 16, 2, 1, 0, [1, 1, 0, 0, 0, 0]>, <59, 13, 29, 16, 2, 1, 0, [1, 1, 0, 0, 0, 0]>, <60, 0, 15, 15, 3, 0, 1, [0, 0, 0, 1, 1, 0]>, <61, 1, 16, 15, 3, 0, 1, [0, 0, 0, 1, 1, 0]>, <62, 2, 17, 15, 3, 0, 1, [0, 0, 0, 1, 1, 0]>, <63, 3, 18, 15, 3, 0, 1, [0, 0, 0, 1, 1, 0]>, <64, 4, 19, 15, 3, 0, 1, [0, 0, 0, 1, 1, 0]>, <65, 5, 20, 15, 3, 0, 1, [0, 0, 0, 1, 1, 0]>, <66, 6, 21, 15, 3, 0, 1, [0, 0, 0, 1, 1, 0]>, <67, 7, 22, 15, 3, 0, 1, [0, 0, 0, 1, 1, 0]>, <68, 8, 23, 15, 3, 0, 1, [0, 0, 0, 1, 1, 0]>, <69, 9, 24, 15, 3, 0, 1, [0, 0, 0, 1, 1, 0]>, <70, 10, 25, 15, 3, 0, 1, [0, 0, 0, 1, 1, 0]>, <71, 11, 26, 15, 3, 0, 1, [0, 0, 0, 1, 1, 0]>, <72, 12, 27, 15, 3, 0, 1, [0, 0, 0, 1, 1, 0]>, <73, 13, 28, 15, 3, 0, 1, [0, 0, 0, 1, 1, 0]>, <74, 14, 29, 15, 3, 0, 1, [0, 0, 0, 1, 1, 0]>, <75, 0, 16, 16, 4, 0, 0, [0, 0, 0, 1, 1, 0]>, <76, 1, 17, 16, 4, 0, 0, [0, 0, 0, 1, 1, 0]>, <77, 2, 18, 16, 4, 0, 0, [0, 0, 0, 1, 1, 0]>, <78, 3, 19, 16, 4, 0, 0, [0, 0, 0, 1, 1, 0]>, <79, 4, 20, 16, 4, 0, 0, [0, 0, 0, 1, 1, 0]>, <80, 5, 21, 16, 4, 0, 0, [0, 0, 0, 1, 1, 0]>, <81, 6, 22, 16, 4, 0, 0, [0, 0, 0, 1, 1, 0]>, <82, 7, 23, 16, 4, 0, 0, [0, 0, 0, 1, 1, 0]>, <83, 8, 24, 16, 4, 0, 0, [0, 0, 0, 1, 1, 0]>, <84, 9, 25, 16, 4, 0, 0, [0, 0, 0, 1, 1, 0]>, <85, 10, 26, 16, 4, 0, 0, [0, 0, 0, 1, 1, 0]>, <86, 11, 27, 16, 4, 0, 0, [0, 0, 0, 1, 1, 0]>, <87, 12, 28, 16, 4, 0, 0, [0, 0, 0, 1, 1, 0]>, <88, 13, 29, 16, 4, 0, 0, [0, 0, 0, 1, 1, 0]>, <89, 0, 15, 15, 5, 0, 0, [1, 1, 0, 0, 0, 0]>, <90, 1, 16, 15, 5, 0, 0, [1, 1, 0, 0, 0, 0]>, <91, 2, 17, 15, 5, 0, 0, [1, 1, 0, 0, 0, 0]>, <92, 3, 18, 15, 5, 0, 0, [1, 1, 0, 0, 0, 0]>, <93, 4, 19, 15, 5, 0, 0, [1, 1, 0, 0, 0, 0]>, <94, 5, 20, 15, 5, 0, 0, [1, 1, 0, 0, 0, 0]>, <95, 6, 21, 15, 5, 0, 0, [1, 1, 0, 0, 0, 0]>, <96, 7, 22, 15, 5, 0, 0, [1, 1, 0, 0, 0, 0]>, <97, 8, 23, 15, 5, 0, 0, [1, 1, 0, 0, 0, 0]>, <98, 9, 24, 15, 5, 0, 0, [1, 1, 0, 0, 0, 0]>, <99, 10, 25, 15, 5, 0, 0, [1, 1, 0, 0, 0, 0]>, <100, 11, 26, 15, 5, 0, 0, [1, 1, 0, 0, 0, 0]>, <101, 12, 27, 15, 5, 0, 0, [1, 1, 0, 0, 0, 0]>, <102, 13, 28, 15, 5, 0, 0, [1, 1, 0, 0, 0, 0]>, <103, 14, 29, 15, 5, 0, 0, [1, 1, 0, 0, 0, 0]>, <104, 0, 16, 16, 6, 0, 0, [0, 0, 0, 1, 1, 0]>, <105, 1, 17, 16, 6, 0, 0, [0, 0, 0, 1, 1, 0]>, <106, 2, 18, 16, 6, 0, 0, [0, 0, 0, 1, 1, 0]>, <107, 3, 19, 16, 6, 0, 0, [0, 0, 0, 1, 1, 0]>, <108, 4, 20, 16, 6, 0, 0, [0, 0, 0, 1, 1, 0]>, <109, 5, 21, 16, 6, 0, 0, [0, 0, 0, 1, 1, 0]>, <110, 6, 22, 16, 6, 0, 0, [0, 0, 0, 1, 1, 0]>, <111, 7, 23, 16, 6, 0, 0, [0, 0, 0, 1, 1, 0]>, <112, 8, 24, 16, 6, 0, 0, [0, 0, 0, 1, 1, 0]>, <113, 9, 25, 16, 6, 0, 0, [0, 0, 0, 1, 1, 0]>, <114, 10, 26, 16, 6, 0, 0, [0, 0, 0, 1, 1, 0]>, <115, 11, 27, 16, 6, 0, 0, [0, 0, 0, 1, 1, 0]>, <116, 12, 28, 16, 6, 0, 0, [0, 0, 0, 1, 1, 0]>, <117, 13, 29, 16, 6, 0, 0, [0, 0, 0, 1, 1, 0]>, <118, 0, 14, 14, 7, 0, 0, [0, 0, 0, 0, 1, 1]>, <119, 1, 15, 14, 7, 0, 0, [0, 0, 0, 0, 1, 1]>, <120, 2, 16, 14, 7, 0, 0, [0, 0, 0, 0, 1, 1]>, <121, 3, 17, 14, 7, 0, 0, [0, 0, 0, 0, 1, 1]>, <122, 4, 18, 14, 7, 0, 0, [0, 0, 0, 0, 1, 1]>, <123, 5, 19, 14, 7, 0, 0, [0, 0, 0, 0, 1, 1]>, <124, 6, 20, 14, 7, 0, 0, [0, 0, 0, 0, 1, 1]>, <125, 7, 21, 14, 7, 0, 0, [0, 0, 0, 0, 1, 1]>, <126, 8, 22, 14, 7, 0, 0, [0, 0, 0, 0, 1, 1]>, <127, 9, 23, 14, 7, 0, 0, [0, 0, 0, 0, 1, 1]>, <128, 10, 24, 14, 7, 0, 0, [0, 0, 0, 0, 1, 1]>, <129, 11, 25, 14, 7, 0, 0, [0, 0, 0, 0, 1, 1]>, <130, 12, 26, 14, 7, 0, 0, [0, 0, 0, 0, 1, 1]>, <131, 13, 27, 14, 7, 0, 0, [0, 0, 0, 0, 1, 1]>, <132, 14, 28, 14, 7, 0, 0, [0, 0, 0, 0, 1, 1]>, <133, 15, 29, 14, 7, 0, 0, [0, 0, 0, 0, 1, 1]>, <134, 0, 18, 18, 8, 0, 0, [1, 1, 0, 0, 0, 0]>, <135, 1, 19, 18, 8, 0, 0, [1, 1, 0, 0, 0, 0]>, <136, 2, 20, 18, 8, 0, 0, [1, 1, 0, 0, 0, 0]>, <137, 3, 21, 18, 8, 0, 0, [1, 1, 0, 0, 0, 0]>, <138, 4, 22, 18, 8, 0, 0, [1, 1, 0, 0, 0, 0]>, <139, 5, 23, 18, 8, 0, 0, [1, 1, 0, 0, 0, 0]>, <140, 6, 24, 18, 8, 0, 0, [1, 1, 0, 0, 0, 0]>, <141, 7, 25, 18, 8, 0, 0, [1, 1, 0, 0, 0, 0]>, <142, 8, 26, 18, 8, 0, 0, [1, 1, 0, 0, 0, 0]>, <143, 9, 27, 18, 8, 0, 0, [1, 1, 0, 0, 0, 0]>, <144, 10, 28, 18, 8, 0, 0, [1, 1, 0, 0, 0, 0]>, <145, 11, 29, 18, 8, 0, 0, [1, 1, 0, 0, 0, 0]>, <146, 0, 16, 16, 9, 1, 0, [0, 0, 0, 1, 1, 0]>, <147, 1, 17, 16, 9, 1, 0, [0, 0, 0, 1, 1, 0]>, <148, 2, 18, 16, 9, 1, 0, [0, 0, 0, 1, 1, 0]>, <149, 3, 19, 16, 9, 1, 0, [0, 0, 0, 1, 1, 0]>, <150, 4, 20, 16, 9, 1, 0, [0, 0, 0, 1, 1, 0]>, <151, 5, 21, 16, 9, 1, 0, [0, 0, 0, 1, 1, 0]>, <152, 6, 22, 16, 9, 1, 0, [0, 0, 0, 1, 1, 0]>, <153, 7, 23, 16, 9, 1, 0, [0, 0, 0, 1, 1, 0]>, <154, 8, 24, 16, 9, 1, 0, [0, 0, 0, 1, 1, 0]>, <155, 9, 25, 16, 9, 1, 0, [0, 0, 0, 1, 1, 0]>, <156, 10, 26, 16, 9, 1, 0, [0, 0, 0, 1, 1, 0]>, <157, 11, 27, 16, 9, 1, 0, [0, 0, 0, 1, 1, 0]>, <158, 12, 28, 16, 9, 1, 0, [0, 0, 0, 1, 1, 0]>, <159, 13, 29, 16, 9, 1, 0, [0, 0, 0, 1, 1, 0]>, <160, 0, 16, 16, 10, 0, 1, [1, 0, 0, 0, 0, 1]>, <161, 1, 17, 16, 10, 0, 1, [1, 0, 0, 0, 0, 1]>, <162, 2, 18, 16, 10, 0, 1, [1, 0, 0, 0, 0, 1]>, <163, 3, 19, 16, 10, 0, 1, [1, 0, 0, 0, 0, 1]>, <164, 4, 20, 16, 10, 0, 1, [1, 0, 0, 0, 0, 1]>, <165, 5, 21, 16, 10, 0, 1, [1, 0, 0, 0, 0, 1]>, <166, 6, 22, 16, 10, 0, 1, [1, 0, 0, 0, 0, 1]>, <167, 7, 23, 16, 10, 0, 1, [1, 0, 0, 0, 0, 1]>, <168, 8, 24, 16, 10, 0, 1, [1, 0, 0, 0, 0, 1]>, <169, 9, 25, 16, 10, 0, 1, [1, 0, 0, 0, 0, 1]>, <170, 10, 26, 16, 10, 0, 1, [1, 0, 0, 0, 0, 1]>, <171, 11, 27, 16, 10, 0, 1, [1, 0, 0, 0, 0, 1]>, <172, 12, 28, 16, 10, 0, 1, [1, 0, 0, 0, 0, 1]>, <173, 13, 29, 16, 10, 0, 1, [1, 0, 0, 0, 0, 1]>, <174, 0, 16, 16, 11, 0, 0, [1, 0, 0, 0, 0, 1]>, <175, 1, 17, 16, 11, 0, 0, [1, 0, 0, 0, 0, 1]>, <176, 2, 18, 16, 11, 0, 0, [1, 0, 0, 0, 0, 1]>, <177, 3, 19, 16, 11, 0, 0, [1, 0, 0, 0, 0, 1]>, <178, 4, 20, 16, 11, 0, 0, [1, 0, 0, 0, 0, 1]>, <179, 5, 21, 16, 11, 0, 0, [1, 0, 0, 0, 0, 1]>, <180, 6, 22, 16, 11, 0, 0, [1, 0, 0, 0, 0, 1]>, <181, 7, 23, 16, 11, 0, 0, [1, 0, 0, 0, 0, 1]>, <182, 8, 24, 16, 11, 0, 0, [1, 0, 0, 0, 0, 1]>, <183, 9, 25, 16, 11, 0, 0, [1, 0, 0, 0, 0, 1]>, <184, 10, 26, 16, 11, 0, 0, [1, 0, 0, 0, 0, 1]>, <185, 11, 27, 16, 11, 0, 0, [1, 0, 0, 0, 0, 1]>, <186, 12, 28, 16, 11, 0, 0, [1, 0, 0, 0, 0, 1]>, <187, 13, 29, 16, 11, 0, 0, [1, 0, 0, 0, 0, 1]>, <188, 0, 17, 17, 12, 0, 0, [1, 1, 0, 0, 0, 0]>, <189, 1, 18, 17, 12, 0, 0, [1, 1, 0, 0, 0, 0]>, <190, 2, 19, 17, 12, 0, 0, [1, 1, 0, 0, 0, 0]>, <191, 3, 20, 17, 12, 0, 0, [1, 1, 0, 0, 0, 0]>, <192, 4, 21, 17, 12, 0, 0, [1, 1, 0, 0, 0, 0]>, <193, 5, 22, 17, 12, 0, 0, [1, 1, 0, 0, 0, 0]>, <194, 6, 23, 17, 12, 0, 0, [1, 1, 0, 0, 0, 0]>, <195, 7, 24, 17, 12, 0, 0, [1, 1, 0, 0, 0, 0]>, <196, 8, 25, 17, 12, 0, 0, [1, 1, 0, 0, 0, 0]>, <197, 9, 26, 17, 12, 0, 0, [1, 1, 0, 0, 0, 0]>, <198, 10, 27, 17, 12, 0, 0, [1, 1, 0, 0, 0, 0]>, <199, 11, 28, 17, 12, 0, 0, [1, 1, 0, 0, 0, 0]>, <200, 12, 29, 17, 12, 0, 0, [1, 1, 0, 0, 0, 0]>, <201, 0, 18, 18, 13, 0, 1, [1, 0, 0, 0, 0, 1]>, <202, 1, 19, 18, 13, 0, 1, [1, 0, 0, 0, 0, 1]>, <203, 2, 20, 18, 13, 0, 1, [1, 0, 0, 0, 0, 1]>, <204, 3, 21, 18, 13, 0, 1, [1, 0, 0, 0, 0, 1]>, <205, 4, 22, 18, 13, 0, 1, [1, 0, 0, 0, 0, 1]>, <206, 5, 23, 18, 13, 0, 1, [1, 0, 0, 0, 0, 1]>, <207, 6, 24, 18, 13, 0, 1, [1, 0, 0, 0, 0, 1]>, <208, 7, 25, 18, 13, 0, 1, [1, 0, 0, 0, 0, 1]>, <209, 8, 26, 18, 13, 0, 1, [1, 0, 0, 0, 0, 1]>, <210, 9, 27, 18, 13, 0, 1, [1, 0, 0, 0, 0, 1]>, <211, 10, 28, 18, 13, 0, 1, [1, 0, 0, 0, 0, 1]>, <212, 11, 29, 18, 13, 0, 1, [1, 0, 0, 0, 0, 1]>, <213, 0, 14, 14, 14, 0, 0, [0, 1, 1, 0, 0, 0]>, <214, 1, 15, 14, 14, 0, 0, [0, 1, 1, 0, 0, 0]>, <215, 2, 16, 14, 14, 0, 0, [0, 1, 1, 0, 0, 0]>, <216, 3, 17, 14, 14, 0, 0, [0, 1, 1, 0, 0, 0]>, <217, 4, 18, 14, 14, 0, 0, [0, 1, 1, 0, 0, 0]>, <218, 5, 19, 14, 14, 0, 0, [0, 1, 1, 0, 0, 0]>, <219, 6, 20, 14, 14, 0, 0, [0, 1, 1, 0, 0, 0]>, <220, 7, 21, 14, 14, 0, 0, [0, 1, 1, 0, 0, 0]>, <221, 8, 22, 14, 14, 0, 0, [0, 1, 1, 0, 0, 0]>, <222, 9, 23, 14, 14, 0, 0, [0, 1, 1, 0, 0, 0]>, <223, 10, 24, 14, 14, 0, 0, [0, 1, 1, 0, 0, 0]>, <224, 11, 25, 14, 14, 0, 0, [0, 1, 1, 0, 0, 0]>, <225, 12, 26, 14, 14, 0, 0, [0, 1, 1, 0, 0, 0]>, <226, 13, 27, 14, 14, 0, 0, [0, 1, 1, 0, 0, 0]>, <227, 14, 28, 14, 14, 0, 0, [0, 1, 1, 0, 0, 0]>, <228, 15, 29, 14, 14, 0, 0, [0, 1, 1, 0, 0, 0]>};
